r = [
0,45,186,88,8,120,198,115,96,161,212,79,181,37,91,161,167,157,73,129,57,157,10,32,134,79,0
];
p = [
0,29,12,6,12,16,14,11,12,19,29,26,27,9,29,13,16,25,29,30,12,20,7,16,4,22,0
];
e = [
0,15,3,13,9,13,19,14,15,15,3,3,12,20,15,16,2,10,15,18,5,9,1,11,18,4,0
];
d = [
0,262,417,310,241,352,406,331,299,361,454,311,403,260,322,371,399,363,307,345,296,375,242,232,362,302,457
];
d_bar = [
0,265,418,311,242,354,407,332,300,363,457,314,406,261,325,372,401,366,310,348,297,377,243,234,363,304,457
];
w = [
0,5,3,13,9,6.5,19,14,15,7.5,1,1,4,20,5,16,1,3.333333333,5,6,5,4.5,1,5.5,18,2,0
];
